\ Model Scheduler
\ LP format - for model browsing. Use MPS format to capture full model detail.
Minimize
  871 x[0,0] + 872 x[0,1] + 873 x[0,2] + 874 x[0,3] + 875 x[0,4]
   + 876 x[0,5] + 877 x[0,6] + 878 x[0,7] + 879 x[0,8] + 880 x[0,9]
   + 881 x[0,10] + 882 x[0,11] + 883 x[0,12] + 884 x[0,13] + 885 x[0,14]
   + 886 x[0,15] + 887 x[0,16] + 888 x[0,17] + 889 x[0,18] + 890 x[0,19]
   + 891 x[0,20] + 892 x[0,21] + 893 x[0,22] + 894 x[0,23] + 895 x[0,24]
   + 896 x[0,25] + 897 x[0,26] + 898 x[0,27] + 899 x[0,28] + 900 x[0,29]
   + 901 x[0,30] + 902 x[0,31] + 903 x[0,32] + 904 x[0,33] + 905 x[0,34]
   + 906 x[0,35] + 907 x[0,36] + 908 x[0,37] + 909 x[0,38] + 910 x[0,39]
   + 911 x[0,40] + 912 x[0,41] + 913 x[0,42] + 914 x[0,43] + 915 x[0,44]
   + 916 x[0,45] + 917 x[0,46] + 918 x[0,47] + 919 x[0,48] + 920 x[0,49]
   + 871 x[1,0] + 872 x[1,1] + 873 x[1,2] + 874 x[1,3] + 875 x[1,4]
   + 876 x[1,5] + 877 x[1,6] + 878 x[1,7] + 879 x[1,8] + 880 x[1,9]
   + 881 x[1,10] + 882 x[1,11] + 883 x[1,12] + 884 x[1,13] + 885 x[1,14]
   + 886 x[1,15] + 887 x[1,16] + 888 x[1,17] + 889 x[1,18] + 890 x[1,19]
   + 891 x[1,20] + 892 x[1,21] + 893 x[1,22] + 894 x[1,23] + 895 x[1,24]
   + 896 x[1,25] + 897 x[1,26] + 898 x[1,27] + 899 x[1,28] + 900 x[1,29]
   + 901 x[1,30] + 902 x[1,31] + 903 x[1,32] + 904 x[1,33] + 905 x[1,34]
   + 906 x[1,35] + 907 x[1,36] + 908 x[1,37] + 909 x[1,38] + 910 x[1,39]
   + 911 x[1,40] + 912 x[1,41] + 913 x[1,42] + 914 x[1,43] + 915 x[1,44]
   + 916 x[1,45] + 917 x[1,46] + 918 x[1,47] + 919 x[1,48] + 920 x[1,49]
   + 866 x[2,0] + 867 x[2,1] + 868 x[2,2] + 869 x[2,3] + 870 x[2,4]
   + 871 x[2,5] + 872 x[2,6] + 873 x[2,7] + 874 x[2,8] + 875 x[2,9]
   + 876 x[2,10] + 877 x[2,11] + 878 x[2,12] + 879 x[2,13] + 880 x[2,14]
   + 881 x[2,15] + 882 x[2,16] + 883 x[2,17] + 884 x[2,18] + 885 x[2,19]
   + 886 x[2,20] + 887 x[2,21] + 888 x[2,22] + 889 x[2,23] + 890 x[2,24]
   + 891 x[2,25] + 892 x[2,26] + 893 x[2,27] + 894 x[2,28] + 895 x[2,29]
   + 896 x[2,30] + 897 x[2,31] + 898 x[2,32] + 899 x[2,33] + 900 x[2,34]
   + 901 x[2,35] + 902 x[2,36] + 903 x[2,37] + 904 x[2,38] + 905 x[2,39]
   + 906 x[2,40] + 907 x[2,41] + 908 x[2,42] + 909 x[2,43] + 910 x[2,44]
   + 911 x[2,45] + 912 x[2,46] + 913 x[2,47] + 914 x[2,48] + 915 x[2,49]
   + 857 x[3,0] + 858 x[3,1] + 859 x[3,2] + 860 x[3,3] + 861 x[3,4]
   + 862 x[3,5] + 863 x[3,6] + 864 x[3,7] + 865 x[3,8] + 866 x[3,9]
   + 867 x[3,10] + 868 x[3,11] + 869 x[3,12] + 870 x[3,13] + 871 x[3,14]
   + 872 x[3,15] + 873 x[3,16] + 874 x[3,17] + 875 x[3,18] + 876 x[3,19]
   + 877 x[3,20] + 878 x[3,21] + 879 x[3,22] + 880 x[3,23] + 881 x[3,24]
   + 882 x[3,25] + 883 x[3,26] + 884 x[3,27] + 885 x[3,28] + 886 x[3,29]
   + 887 x[3,30] + 888 x[3,31] + 889 x[3,32] + 890 x[3,33] + 891 x[3,34]
   + 892 x[3,35] + 893 x[3,36] + 894 x[3,37] + 895 x[3,38] + 896 x[3,39]
   + 897 x[3,40] + 898 x[3,41] + 899 x[3,42] + 900 x[3,43] + 901 x[3,44]
   + 902 x[3,45] + 903 x[3,46] + 904 x[3,47] + 905 x[3,48] + 906 x[3,49]
   + 854 x[4,0] + 855 x[4,1] + 856 x[4,2] + 857 x[4,3] + 858 x[4,4]
   + 859 x[4,5] + 860 x[4,6] + 861 x[4,7] + 862 x[4,8] + 863 x[4,9]
   + 864 x[4,10] + 865 x[4,11] + 866 x[4,12] + 867 x[4,13] + 868 x[4,14]
   + 869 x[4,15] + 870 x[4,16] + 871 x[4,17] + 872 x[4,18] + 873 x[4,19]
   + 874 x[4,20] + 875 x[4,21] + 876 x[4,22] + 877 x[4,23] + 878 x[4,24]
   + 879 x[4,25] + 880 x[4,26] + 881 x[4,27] + 882 x[4,28] + 883 x[4,29]
   + 884 x[4,30] + 885 x[4,31] + 886 x[4,32] + 887 x[4,33] + 888 x[4,34]
   + 889 x[4,35] + 890 x[4,36] + 891 x[4,37] + 892 x[4,38] + 893 x[4,39]
   + 894 x[4,40] + 895 x[4,41] + 896 x[4,42] + 897 x[4,43] + 898 x[4,44]
   + 899 x[4,45] + 900 x[4,46] + 901 x[4,47] + 902 x[4,48] + 903 x[4,49]
   + 852 x[5,0] + 853 x[5,1] + 854 x[5,2] + 855 x[5,3] + 856 x[5,4]
   + 857 x[5,5] + 858 x[5,6] + 859 x[5,7] + 860 x[5,8] + 861 x[5,9]
   + 862 x[5,10] + 863 x[5,11] + 864 x[5,12] + 865 x[5,13] + 866 x[5,14]
   + 867 x[5,15] + 868 x[5,16] + 869 x[5,17] + 870 x[5,18] + 871 x[5,19]
   + 872 x[5,20] + 873 x[5,21] + 874 x[5,22] + 875 x[5,23] + 876 x[5,24]
   + 877 x[5,25] + 878 x[5,26] + 879 x[5,27] + 880 x[5,28] + 881 x[5,29]
   + 882 x[5,30] + 883 x[5,31] + 884 x[5,32] + 885 x[5,33] + 886 x[5,34]
   + 887 x[5,35] + 888 x[5,36] + 889 x[5,37] + 890 x[5,38] + 891 x[5,39]
   + 892 x[5,40] + 893 x[5,41] + 894 x[5,42] + 895 x[5,43] + 896 x[5,44]
   + 897 x[5,45] + 898 x[5,46] + 899 x[5,47] + 900 x[5,48] + 901 x[5,49]
   + 849 x[6,0] + 850 x[6,1] + 851 x[6,2] + 852 x[6,3] + 853 x[6,4]
   + 854 x[6,5] + 855 x[6,6] + 856 x[6,7] + 857 x[6,8] + 858 x[6,9]
   + 859 x[6,10] + 860 x[6,11] + 861 x[6,12] + 862 x[6,13] + 863 x[6,14]
   + 864 x[6,15] + 865 x[6,16] + 866 x[6,17] + 867 x[6,18] + 868 x[6,19]
   + 869 x[6,20] + 870 x[6,21] + 871 x[6,22] + 872 x[6,23] + 873 x[6,24]
   + 874 x[6,25] + 875 x[6,26] + 876 x[6,27] + 877 x[6,28] + 878 x[6,29]
   + 879 x[6,30] + 880 x[6,31] + 881 x[6,32] + 882 x[6,33] + 883 x[6,34]
   + 884 x[6,35] + 885 x[6,36] + 886 x[6,37] + 887 x[6,38] + 888 x[6,39]
   + 889 x[6,40] + 890 x[6,41] + 891 x[6,42] + 892 x[6,43] + 893 x[6,44]
   + 894 x[6,45] + 895 x[6,46] + 896 x[6,47] + 897 x[6,48] + 898 x[6,49]
   + 845 x[7,0] + 846 x[7,1] + 847 x[7,2] + 848 x[7,3] + 849 x[7,4]
   + 850 x[7,5] + 851 x[7,6] + 852 x[7,7] + 853 x[7,8] + 854 x[7,9]
   + 855 x[7,10] + 856 x[7,11] + 857 x[7,12] + 858 x[7,13] + 859 x[7,14]
   + 860 x[7,15] + 861 x[7,16] + 862 x[7,17] + 863 x[7,18] + 864 x[7,19]
   + 865 x[7,20] + 866 x[7,21] + 867 x[7,22] + 868 x[7,23] + 869 x[7,24]
   + 870 x[7,25] + 871 x[7,26] + 872 x[7,27] + 873 x[7,28] + 874 x[7,29]
   + 875 x[7,30] + 876 x[7,31] + 877 x[7,32] + 878 x[7,33] + 879 x[7,34]
   + 880 x[7,35] + 881 x[7,36] + 882 x[7,37] + 883 x[7,38] + 884 x[7,39]
   + 885 x[7,40] + 886 x[7,41] + 887 x[7,42] + 888 x[7,43] + 889 x[7,44]
   + 890 x[7,45] + 891 x[7,46] + 892 x[7,47] + 893 x[7,48] + 894 x[7,49]
   + 842 x[8,0] + 843 x[8,1] + 844 x[8,2] + 845 x[8,3] + 846 x[8,4]
   + 847 x[8,5] + 848 x[8,6] + 849 x[8,7] + 850 x[8,8] + 851 x[8,9]
   + 852 x[8,10] + 853 x[8,11] + 854 x[8,12] + 855 x[8,13] + 856 x[8,14]
   + 857 x[8,15] + 858 x[8,16] + 859 x[8,17] + 860 x[8,18] + 861 x[8,19]
   + 862 x[8,20] + 863 x[8,21] + 864 x[8,22] + 865 x[8,23] + 866 x[8,24]
   + 867 x[8,25] + 868 x[8,26] + 869 x[8,27] + 870 x[8,28] + 871 x[8,29]
   + 872 x[8,30] + 873 x[8,31] + 874 x[8,32] + 875 x[8,33] + 876 x[8,34]
   + 877 x[8,35] + 878 x[8,36] + 879 x[8,37] + 880 x[8,38] + 881 x[8,39]
   + 882 x[8,40] + 883 x[8,41] + 884 x[8,42] + 885 x[8,43] + 886 x[8,44]
   + 887 x[8,45] + 888 x[8,46] + 889 x[8,47] + 890 x[8,48] + 891 x[8,49]
   + 839 x[9,0] + 840 x[9,1] + 841 x[9,2] + 842 x[9,3] + 843 x[9,4]
   + 844 x[9,5] + 845 x[9,6] + 846 x[9,7] + 847 x[9,8] + 848 x[9,9]
   + 849 x[9,10] + 850 x[9,11] + 851 x[9,12] + 852 x[9,13] + 853 x[9,14]
   + 854 x[9,15] + 855 x[9,16] + 856 x[9,17] + 857 x[9,18] + 858 x[9,19]
   + 859 x[9,20] + 860 x[9,21] + 861 x[9,22] + 862 x[9,23] + 863 x[9,24]
   + 864 x[9,25] + 865 x[9,26] + 866 x[9,27] + 867 x[9,28] + 868 x[9,29]
   + 869 x[9,30] + 870 x[9,31] + 871 x[9,32] + 872 x[9,33] + 873 x[9,34]
   + 874 x[9,35] + 875 x[9,36] + 876 x[9,37] + 877 x[9,38] + 878 x[9,39]
   + 879 x[9,40] + 880 x[9,41] + 881 x[9,42] + 882 x[9,43] + 883 x[9,44]
   + 884 x[9,45] + 885 x[9,46] + 886 x[9,47] + 887 x[9,48] + 888 x[9,49]
   + s[0] + 28.5 s[1] + 1.5 s[2] + 14 s[3] + 45.5 s[4] + s[5] + 1.5 s[6]
   + 14 s[7] + 65.5 s[8] + 22.5 s[9]
Subject To
 R0: x[0,0] + x[0,1] + x[0,2] + x[0,3] + x[0,4] + x[0,5] + x[0,6] + x[0,7]
   + x[0,8] + x[0,9] + x[0,10] + x[0,11] + x[0,12] + x[0,13] + x[0,14]
   + x[0,15] + x[0,16] + x[0,17] + x[0,18] + x[0,19] + x[0,20] + x[0,21]
   + x[0,22] + x[0,23] + x[0,24] + x[0,25] + x[0,26] + x[0,27] + x[0,28]
   + x[0,29] + x[0,30] + x[0,31] + x[0,32] + x[0,33] + x[0,34] + x[0,35]
   + x[0,36] + x[0,37] + x[0,38] + x[0,39] + x[0,40] + x[0,41] + x[0,42]
   + x[0,43] + x[0,44] + x[0,45] + x[0,46] + x[0,47] + x[0,48] + x[0,49]
   = 2
 R1: x[1,0] + x[1,1] + x[1,2] + x[1,3] + x[1,4] + x[1,5] + x[1,6] + x[1,7]
   + x[1,8] + x[1,9] + x[1,10] + x[1,11] + x[1,12] + x[1,13] + x[1,14]
   + x[1,15] + x[1,16] + x[1,17] + x[1,18] + x[1,19] + x[1,20] + x[1,21]
   + x[1,22] + x[1,23] + x[1,24] + x[1,25] + x[1,26] + x[1,27] + x[1,28]
   + x[1,29] + x[1,30] + x[1,31] + x[1,32] + x[1,33] + x[1,34] + x[1,35]
   + x[1,36] + x[1,37] + x[1,38] + x[1,39] + x[1,40] + x[1,41] + x[1,42]
   + x[1,43] + x[1,44] + x[1,45] + x[1,46] + x[1,47] + x[1,48] + x[1,49]
   = 57
 R2: x[2,0] + x[2,1] + x[2,2] + x[2,3] + x[2,4] + x[2,5] + x[2,6] + x[2,7]
   + x[2,8] + x[2,9] + x[2,10] + x[2,11] + x[2,12] + x[2,13] + x[2,14]
   + x[2,15] + x[2,16] + x[2,17] + x[2,18] + x[2,19] + x[2,20] + x[2,21]
   + x[2,22] + x[2,23] + x[2,24] + x[2,25] + x[2,26] + x[2,27] + x[2,28]
   + x[2,29] + x[2,30] + x[2,31] + x[2,32] + x[2,33] + x[2,34] + x[2,35]
   + x[2,36] + x[2,37] + x[2,38] + x[2,39] + x[2,40] + x[2,41] + x[2,42]
   + x[2,43] + x[2,44] + x[2,45] + x[2,46] + x[2,47] + x[2,48] + x[2,49]
   = 3
 R3: x[3,0] + x[3,1] + x[3,2] + x[3,3] + x[3,4] + x[3,5] + x[3,6] + x[3,7]
   + x[3,8] + x[3,9] + x[3,10] + x[3,11] + x[3,12] + x[3,13] + x[3,14]
   + x[3,15] + x[3,16] + x[3,17] + x[3,18] + x[3,19] + x[3,20] + x[3,21]
   + x[3,22] + x[3,23] + x[3,24] + x[3,25] + x[3,26] + x[3,27] + x[3,28]
   + x[3,29] + x[3,30] + x[3,31] + x[3,32] + x[3,33] + x[3,34] + x[3,35]
   + x[3,36] + x[3,37] + x[3,38] + x[3,39] + x[3,40] + x[3,41] + x[3,42]
   + x[3,43] + x[3,44] + x[3,45] + x[3,46] + x[3,47] + x[3,48] + x[3,49]
   = 28
 R4: x[4,0] + x[4,1] + x[4,2] + x[4,3] + x[4,4] + x[4,5] + x[4,6] + x[4,7]
   + x[4,8] + x[4,9] + x[4,10] + x[4,11] + x[4,12] + x[4,13] + x[4,14]
   + x[4,15] + x[4,16] + x[4,17] + x[4,18] + x[4,19] + x[4,20] + x[4,21]
   + x[4,22] + x[4,23] + x[4,24] + x[4,25] + x[4,26] + x[4,27] + x[4,28]
   + x[4,29] + x[4,30] + x[4,31] + x[4,32] + x[4,33] + x[4,34] + x[4,35]
   + x[4,36] + x[4,37] + x[4,38] + x[4,39] + x[4,40] + x[4,41] + x[4,42]
   + x[4,43] + x[4,44] + x[4,45] + x[4,46] + x[4,47] + x[4,48] + x[4,49]
   = 91
 R5: x[5,0] + x[5,1] + x[5,2] + x[5,3] + x[5,4] + x[5,5] + x[5,6] + x[5,7]
   + x[5,8] + x[5,9] + x[5,10] + x[5,11] + x[5,12] + x[5,13] + x[5,14]
   + x[5,15] + x[5,16] + x[5,17] + x[5,18] + x[5,19] + x[5,20] + x[5,21]
   + x[5,22] + x[5,23] + x[5,24] + x[5,25] + x[5,26] + x[5,27] + x[5,28]
   + x[5,29] + x[5,30] + x[5,31] + x[5,32] + x[5,33] + x[5,34] + x[5,35]
   + x[5,36] + x[5,37] + x[5,38] + x[5,39] + x[5,40] + x[5,41] + x[5,42]
   + x[5,43] + x[5,44] + x[5,45] + x[5,46] + x[5,47] + x[5,48] + x[5,49]
   = 2
 R6: x[6,0] + x[6,1] + x[6,2] + x[6,3] + x[6,4] + x[6,5] + x[6,6] + x[6,7]
   + x[6,8] + x[6,9] + x[6,10] + x[6,11] + x[6,12] + x[6,13] + x[6,14]
   + x[6,15] + x[6,16] + x[6,17] + x[6,18] + x[6,19] + x[6,20] + x[6,21]
   + x[6,22] + x[6,23] + x[6,24] + x[6,25] + x[6,26] + x[6,27] + x[6,28]
   + x[6,29] + x[6,30] + x[6,31] + x[6,32] + x[6,33] + x[6,34] + x[6,35]
   + x[6,36] + x[6,37] + x[6,38] + x[6,39] + x[6,40] + x[6,41] + x[6,42]
   + x[6,43] + x[6,44] + x[6,45] + x[6,46] + x[6,47] + x[6,48] + x[6,49]
   = 3
 R7: x[7,0] + x[7,1] + x[7,2] + x[7,3] + x[7,4] + x[7,5] + x[7,6] + x[7,7]
   + x[7,8] + x[7,9] + x[7,10] + x[7,11] + x[7,12] + x[7,13] + x[7,14]
   + x[7,15] + x[7,16] + x[7,17] + x[7,18] + x[7,19] + x[7,20] + x[7,21]
   + x[7,22] + x[7,23] + x[7,24] + x[7,25] + x[7,26] + x[7,27] + x[7,28]
   + x[7,29] + x[7,30] + x[7,31] + x[7,32] + x[7,33] + x[7,34] + x[7,35]
   + x[7,36] + x[7,37] + x[7,38] + x[7,39] + x[7,40] + x[7,41] + x[7,42]
   + x[7,43] + x[7,44] + x[7,45] + x[7,46] + x[7,47] + x[7,48] + x[7,49]
   = 28
 R8: x[8,0] + x[8,1] + x[8,2] + x[8,3] + x[8,4] + x[8,5] + x[8,6] + x[8,7]
   + x[8,8] + x[8,9] + x[8,10] + x[8,11] + x[8,12] + x[8,13] + x[8,14]
   + x[8,15] + x[8,16] + x[8,17] + x[8,18] + x[8,19] + x[8,20] + x[8,21]
   + x[8,22] + x[8,23] + x[8,24] + x[8,25] + x[8,26] + x[8,27] + x[8,28]
   + x[8,29] + x[8,30] + x[8,31] + x[8,32] + x[8,33] + x[8,34] + x[8,35]
   + x[8,36] + x[8,37] + x[8,38] + x[8,39] + x[8,40] + x[8,41] + x[8,42]
   + x[8,43] + x[8,44] + x[8,45] + x[8,46] + x[8,47] + x[8,48] + x[8,49]
   = 131
 R9: x[9,0] + x[9,1] + x[9,2] + x[9,3] + x[9,4] + x[9,5] + x[9,6] + x[9,7]
   + x[9,8] + x[9,9] + x[9,10] + x[9,11] + x[9,12] + x[9,13] + x[9,14]
   + x[9,15] + x[9,16] + x[9,17] + x[9,18] + x[9,19] + x[9,20] + x[9,21]
   + x[9,22] + x[9,23] + x[9,24] + x[9,25] + x[9,26] + x[9,27] + x[9,28]
   + x[9,29] + x[9,30] + x[9,31] + x[9,32] + x[9,33] + x[9,34] + x[9,35]
   + x[9,36] + x[9,37] + x[9,38] + x[9,39] + x[9,40] + x[9,41] + x[9,42]
   + x[9,43] + x[9,44] + x[9,45] + x[9,46] + x[9,47] + x[9,48] + x[9,49]
   = 45
 R10: x[0,0] + x[1,0] + x[2,0] + x[3,0] + x[4,0] + x[5,0] + x[6,0] + x[7,0]
   + x[8,0] + x[9,0] - b <= 0
 R11: s[0] >= 0
 R12: - x[0,0] + s[0] >= 0
 R13: s[1] >= 0
 R14: - x[1,0] + s[1] >= 0
 R15: s[2] >= 0
 R16: - x[2,0] + s[2] >= 0
 R17: s[3] >= 0
 R18: - x[3,0] + s[3] >= 0
 R19: s[4] >= 0
 R20: - x[4,0] + s[4] >= 0
 R21: s[5] >= 0
 R22: - x[5,0] + s[5] >= 0
 R23: s[6] >= 0
 R24: - x[6,0] + s[6] >= 0
 R25: s[7] >= 0
 R26: - x[7,0] + s[7] >= 0
 R27: s[8] >= 0
 R28: - x[8,0] + s[8] >= 0
 R29: s[9] >= 0
 R30: - x[9,0] + s[9] >= 0
Bounds
Binaries
 x[0,0] x[0,1] x[0,2] x[0,3] x[0,4] x[0,5] x[0,6] x[0,7] x[0,8] x[0,9]
 x[0,10] x[0,11] x[0,12] x[0,13] x[0,14] x[0,15] x[0,16] x[0,17] x[0,18]
 x[0,19] x[0,20] x[0,21] x[0,22] x[0,23] x[0,24] x[0,25] x[0,26] x[0,27]
 x[0,28] x[0,29] x[0,30] x[0,31] x[0,32] x[0,33] x[0,34] x[0,35] x[0,36]
 x[0,37] x[0,38] x[0,39] x[0,40] x[0,41] x[0,42] x[0,43] x[0,44] x[0,45]
 x[0,46] x[0,47] x[0,48] x[0,49] x[1,0] x[1,1] x[1,2] x[1,3] x[1,4] x[1,5]
 x[1,6] x[1,7] x[1,8] x[1,9] x[1,10] x[1,11] x[1,12] x[1,13] x[1,14]
 x[1,15] x[1,16] x[1,17] x[1,18] x[1,19] x[1,20] x[1,21] x[1,22] x[1,23]
 x[1,24] x[1,25] x[1,26] x[1,27] x[1,28] x[1,29] x[1,30] x[1,31] x[1,32]
 x[1,33] x[1,34] x[1,35] x[1,36] x[1,37] x[1,38] x[1,39] x[1,40] x[1,41]
 x[1,42] x[1,43] x[1,44] x[1,45] x[1,46] x[1,47] x[1,48] x[1,49] x[2,0]
 x[2,1] x[2,2] x[2,3] x[2,4] x[2,5] x[2,6] x[2,7] x[2,8] x[2,9] x[2,10]
 x[2,11] x[2,12] x[2,13] x[2,14] x[2,15] x[2,16] x[2,17] x[2,18] x[2,19]
 x[2,20] x[2,21] x[2,22] x[2,23] x[2,24] x[2,25] x[2,26] x[2,27] x[2,28]
 x[2,29] x[2,30] x[2,31] x[2,32] x[2,33] x[2,34] x[2,35] x[2,36] x[2,37]
 x[2,38] x[2,39] x[2,40] x[2,41] x[2,42] x[2,43] x[2,44] x[2,45] x[2,46]
 x[2,47] x[2,48] x[2,49] x[3,0] x[3,1] x[3,2] x[3,3] x[3,4] x[3,5] x[3,6]
 x[3,7] x[3,8] x[3,9] x[3,10] x[3,11] x[3,12] x[3,13] x[3,14] x[3,15]
 x[3,16] x[3,17] x[3,18] x[3,19] x[3,20] x[3,21] x[3,22] x[3,23] x[3,24]
 x[3,25] x[3,26] x[3,27] x[3,28] x[3,29] x[3,30] x[3,31] x[3,32] x[3,33]
 x[3,34] x[3,35] x[3,36] x[3,37] x[3,38] x[3,39] x[3,40] x[3,41] x[3,42]
 x[3,43] x[3,44] x[3,45] x[3,46] x[3,47] x[3,48] x[3,49] x[4,0] x[4,1]
 x[4,2] x[4,3] x[4,4] x[4,5] x[4,6] x[4,7] x[4,8] x[4,9] x[4,10] x[4,11]
 x[4,12] x[4,13] x[4,14] x[4,15] x[4,16] x[4,17] x[4,18] x[4,19] x[4,20]
 x[4,21] x[4,22] x[4,23] x[4,24] x[4,25] x[4,26] x[4,27] x[4,28] x[4,29]
 x[4,30] x[4,31] x[4,32] x[4,33] x[4,34] x[4,35] x[4,36] x[4,37] x[4,38]
 x[4,39] x[4,40] x[4,41] x[4,42] x[4,43] x[4,44] x[4,45] x[4,46] x[4,47]
 x[4,48] x[4,49] x[5,0] x[5,1] x[5,2] x[5,3] x[5,4] x[5,5] x[5,6] x[5,7]
 x[5,8] x[5,9] x[5,10] x[5,11] x[5,12] x[5,13] x[5,14] x[5,15] x[5,16]
 x[5,17] x[5,18] x[5,19] x[5,20] x[5,21] x[5,22] x[5,23] x[5,24] x[5,25]
 x[5,26] x[5,27] x[5,28] x[5,29] x[5,30] x[5,31] x[5,32] x[5,33] x[5,34]
 x[5,35] x[5,36] x[5,37] x[5,38] x[5,39] x[5,40] x[5,41] x[5,42] x[5,43]
 x[5,44] x[5,45] x[5,46] x[5,47] x[5,48] x[5,49] x[6,0] x[6,1] x[6,2]
 x[6,3] x[6,4] x[6,5] x[6,6] x[6,7] x[6,8] x[6,9] x[6,10] x[6,11] x[6,12]
 x[6,13] x[6,14] x[6,15] x[6,16] x[6,17] x[6,18] x[6,19] x[6,20] x[6,21]
 x[6,22] x[6,23] x[6,24] x[6,25] x[6,26] x[6,27] x[6,28] x[6,29] x[6,30]
 x[6,31] x[6,32] x[6,33] x[6,34] x[6,35] x[6,36] x[6,37] x[6,38] x[6,39]
 x[6,40] x[6,41] x[6,42] x[6,43] x[6,44] x[6,45] x[6,46] x[6,47] x[6,48]
 x[6,49] x[7,0] x[7,1] x[7,2] x[7,3] x[7,4] x[7,5] x[7,6] x[7,7] x[7,8]
 x[7,9] x[7,10] x[7,11] x[7,12] x[7,13] x[7,14] x[7,15] x[7,16] x[7,17]
 x[7,18] x[7,19] x[7,20] x[7,21] x[7,22] x[7,23] x[7,24] x[7,25] x[7,26]
 x[7,27] x[7,28] x[7,29] x[7,30] x[7,31] x[7,32] x[7,33] x[7,34] x[7,35]
 x[7,36] x[7,37] x[7,38] x[7,39] x[7,40] x[7,41] x[7,42] x[7,43] x[7,44]
 x[7,45] x[7,46] x[7,47] x[7,48] x[7,49] x[8,0] x[8,1] x[8,2] x[8,3] x[8,4]
 x[8,5] x[8,6] x[8,7] x[8,8] x[8,9] x[8,10] x[8,11] x[8,12] x[8,13] x[8,14]
 x[8,15] x[8,16] x[8,17] x[8,18] x[8,19] x[8,20] x[8,21] x[8,22] x[8,23]
 x[8,24] x[8,25] x[8,26] x[8,27] x[8,28] x[8,29] x[8,30] x[8,31] x[8,32]
 x[8,33] x[8,34] x[8,35] x[8,36] x[8,37] x[8,38] x[8,39] x[8,40] x[8,41]
 x[8,42] x[8,43] x[8,44] x[8,45] x[8,46] x[8,47] x[8,48] x[8,49] x[9,0]
 x[9,1] x[9,2] x[9,3] x[9,4] x[9,5] x[9,6] x[9,7] x[9,8] x[9,9] x[9,10]
 x[9,11] x[9,12] x[9,13] x[9,14] x[9,15] x[9,16] x[9,17] x[9,18] x[9,19]
 x[9,20] x[9,21] x[9,22] x[9,23] x[9,24] x[9,25] x[9,26] x[9,27] x[9,28]
 x[9,29] x[9,30] x[9,31] x[9,32] x[9,33] x[9,34] x[9,35] x[9,36] x[9,37]
 x[9,38] x[9,39] x[9,40] x[9,41] x[9,42] x[9,43] x[9,44] x[9,45] x[9,46]
 x[9,47] x[9,48] x[9,49] s[0] s[1] s[2] s[3] s[4] s[5] s[6] s[7] s[8] s[9]
Generals
 b
End
